60

  0    1    2    3    4    5    6    7    8    9    1    2    3    4    5    6    7    8    9   10    2    3    4    5    6    7    8    9   10   11    3    4    5    6    7    8    9   10   11   12    4    5    6    7    8    9   10   11   12   13    5    6    7    8    9   10   11   12   13   14  
  1    0    1    2    3    4    5    6    7    8    2    1    2    3    4    5    6    7    8    9    3    2    3    4    5    6    7    8    9   10    4    3    4    5    6    7    8    9   10   11    5    4    5    6    7    8    9   10   11   12    6    5    6    7    8    9   10   11   12   13  
  2    1    0    1    2    3    4    5    6    7    3    2    1    2    3    4    5    6    7    8    4    3    2    3    4    5    6    7    8    9    5    4    3    4    5    6    7    8    9   10    6    5    4    5    6    7    8    9   10   11    7    6    5    6    7    8    9   10   11   12  
  3    2    1    0    1    2    3    4    5    6    4    3    2    1    2    3    4    5    6    7    5    4    3    2    3    4    5    6    7    8    6    5    4    3    4    5    6    7    8    9    7    6    5    4    5    6    7    8    9   10    8    7    6    5    6    7    8    9   10   11  
  4    3    2    1    0    1    2    3    4    5    5    4    3    2    1    2    3    4    5    6    6    5    4    3    2    3    4    5    6    7    7    6    5    4    3    4    5    6    7    8    8    7    6    5    4    5    6    7    8    9    9    8    7    6    5    6    7    8    9   10  
  5    4    3    2    1    0    1    2    3    4    6    5    4    3    2    1    2    3    4    5    7    6    5    4    3    2    3    4    5    6    8    7    6    5    4    3    4    5    6    7    9    8    7    6    5    4    5    6    7    8   10    9    8    7    6    5    6    7    8    9  
  6    5    4    3    2    1    0    1    2    3    7    6    5    4    3    2    1    2    3    4    8    7    6    5    4    3    2    3    4    5    9    8    7    6    5    4    3    4    5    6   10    9    8    7    6    5    4    5    6    7   11   10    9    8    7    6    5    6    7    8  
  7    6    5    4    3    2    1    0    1    2    8    7    6    5    4    3    2    1    2    3    9    8    7    6    5    4    3    2    3    4   10    9    8    7    6    5    4    3    4    5   11   10    9    8    7    6    5    4    5    6   12   11   10    9    8    7    6    5    6    7  
  8    7    6    5    4    3    2    1    0    1    9    8    7    6    5    4    3    2    1    2   10    9    8    7    6    5    4    3    2    3   11   10    9    8    7    6    5    4    3    4   12   11   10    9    8    7    6    5    4    5   13   12   11   10    9    8    7    6    5    6  
  9    8    7    6    5    4    3    2    1    0   10    9    8    7    6    5    4    3    2    1   11   10    9    8    7    6    5    4    3    2   12   11   10    9    8    7    6    5    4    3   13   12   11   10    9    8    7    6    5    4   14   13   12   11   10    9    8    7    6    5  
  1    2    3    4    5    6    7    8    9   10    0    1    2    3    4    5    6    7    8    9    1    2    3    4    5    6    7    8    9   10    2    3    4    5    6    7    8    9   10   11    3    4    5    6    7    8    9   10   11   12    4    5    6    7    8    9   10   11   12   13  
  2    1    2    3    4    5    6    7    8    9    1    0    1    2    3    4    5    6    7    8    2    1    2    3    4    5    6    7    8    9    3    2    3    4    5    6    7    8    9   10    4    3    4    5    6    7    8    9   10   11    5    4    5    6    7    8    9   10   11   12  
  3    2    1    2    3    4    5    6    7    8    2    1    0    1    2    3    4    5    6    7    3    2    1    2    3    4    5    6    7    8    4    3    2    3    4    5    6    7    8    9    5    4    3    4    5    6    7    8    9   10    6    5    4    5    6    7    8    9   10   11  
  4    3    2    1    2    3    4    5    6    7    3    2    1    0    1    2    3    4    5    6    4    3    2    1    2    3    4    5    6    7    5    4    3    2    3    4    5    6    7    8    6    5    4    3    4    5    6    7    8    9    7    6    5    4    5    6    7    8    9   10  
  5    4    3    2    1    2    3    4    5    6    4    3    2    1    0    1    2    3    4    5    5    4    3    2    1    2    3    4    5    6    6    5    4    3    2    3    4    5    6    7    7    6    5    4    3    4    5    6    7    8    8    7    6    5    4    5    6    7    8    9  
  6    5    4    3    2    1    2    3    4    5    5    4    3    2    1    0    1    2    3    4    6    5    4    3    2    1    2    3    4    5    7    6    5    4    3    2    3    4    5    6    8    7    6    5    4    3    4    5    6    7    9    8    7    6    5    4    5    6    7    8  
  7    6    5    4    3    2    1    2    3    4    6    5    4    3    2    1    0    1    2    3    7    6    5    4    3    2    1    2    3    4    8    7    6    5    4    3    2    3    4    5    9    8    7    6    5    4    3    4    5    6   10    9    8    7    6    5    4    5    6    7  
  8    7    6    5    4    3    2    1    2    3    7    6    5    4    3    2    1    0    1    2    8    7    6    5    4    3    2    1    2    3    9    8    7    6    5    4    3    2    3    4   10    9    8    7    6    5    4    3    4    5   11   10    9    8    7    6    5    4    5    6  
  9    8    7    6    5    4    3    2    1    2    8    7    6    5    4    3    2    1    0    1    9    8    7    6    5    4    3    2    1    2   10    9    8    7    6    5    4    3    2    3   11   10    9    8    7    6    5    4    3    4   12   11   10    9    8    7    6    5    4    5  
 10    9    8    7    6    5    4    3    2    1    9    8    7    6    5    4    3    2    1    0   10    9    8    7    6    5    4    3    2    1   11   10    9    8    7    6    5    4    3    2   12   11   10    9    8    7    6    5    4    3   13   12   11   10    9    8    7    6    5    4  
  2    3    4    5    6    7    8    9   10   11    1    2    3    4    5    6    7    8    9   10    0    1    2    3    4    5    6    7    8    9    1    2    3    4    5    6    7    8    9   10    2    3    4    5    6    7    8    9   10   11    3    4    5    6    7    8    9   10   11   12  
  3    2    3    4    5    6    7    8    9   10    2    1    2    3    4    5    6    7    8    9    1    0    1    2    3    4    5    6    7    8    2    1    2    3    4    5    6    7    8    9    3    2    3    4    5    6    7    8    9   10    4    3    4    5    6    7    8    9   10   11  
  4    3    2    3    4    5    6    7    8    9    3    2    1    2    3    4    5    6    7    8    2    1    0    1    2    3    4    5    6    7    3    2    1    2    3    4    5    6    7    8    4    3    2    3    4    5    6    7    8    9    5    4    3    4    5    6    7    8    9   10  
  5    4    3    2    3    4    5    6    7    8    4    3    2    1    2    3    4    5    6    7    3    2    1    0    1    2    3    4    5    6    4    3    2    1    2    3    4    5    6    7    5    4    3    2    3    4    5    6    7    8    6    5    4    3    4    5    6    7    8    9  
  6    5    4    3    2    3    4    5    6    7    5    4    3    2    1    2    3    4    5    6    4    3    2    1    0    1    2    3    4    5    5    4    3    2    1    2    3    4    5    6    6    5    4    3    2    3    4    5    6    7    7    6    5    4    3    4    5    6    7    8  
  7    6    5    4    3    2    3    4    5    6    6    5    4    3    2    1    2    3    4    5    5    4    3    2    1    0    1    2    3    4    6    5    4    3    2    1    2    3    4    5    7    6    5    4    3    2    3    4    5    6    8    7    6    5    4    3    4    5    6    7  
  8    7    6    5    4    3    2    3    4    5    7    6    5    4    3    2    1    2    3    4    6    5    4    3    2    1    0    1    2    3    7    6    5    4    3    2    1    2    3    4    8    7    6    5    4    3    2    3    4    5    9    8    7    6    5    4    3    4    5    6  
  9    8    7    6    5    4    3    2    3    4    8    7    6    5    4    3    2    1    2    3    7    6    5    4    3    2    1    0    1    2    8    7    6    5    4    3    2    1    2    3    9    8    7    6    5    4    3    2    3    4   10    9    8    7    6    5    4    3    4    5  
 10    9    8    7    6    5    4    3    2    3    9    8    7    6    5    4    3    2    1    2    8    7    6    5    4    3    2    1    0    1    9    8    7    6    5    4    3    2    1    2   10    9    8    7    6    5    4    3    2    3   11   10    9    8    7    6    5    4    3    4  
 11   10    9    8    7    6    5    4    3    2   10    9    8    7    6    5    4    3    2    1    9    8    7    6    5    4    3    2    1    0   10    9    8    7    6    5    4    3    2    1   11   10    9    8    7    6    5    4    3    2   12   11   10    9    8    7    6    5    4    3  
  3    4    5    6    7    8    9   10   11   12    2    3    4    5    6    7    8    9   10   11    1    2    3    4    5    6    7    8    9   10    0    1    2    3    4    5    6    7    8    9    1    2    3    4    5    6    7    8    9   10    2    3    4    5    6    7    8    9   10   11  
  4    3    4    5    6    7    8    9   10   11    3    2    3    4    5    6    7    8    9   10    2    1    2    3    4    5    6    7    8    9    1    0    1    2    3    4    5    6    7    8    2    1    2    3    4    5    6    7    8    9    3    2    3    4    5    6    7    8    9   10  
  5    4    3    4    5    6    7    8    9   10    4    3    2    3    4    5    6    7    8    9    3    2    1    2    3    4    5    6    7    8    2    1    0    1    2    3    4    5    6    7    3    2    1    2    3    4    5    6    7    8    4    3    2    3    4    5    6    7    8    9  
  6    5    4    3    4    5    6    7    8    9    5    4    3    2    3    4    5    6    7    8    4    3    2    1    2    3    4    5    6    7    3    2    1    0    1    2    3    4    5    6    4    3    2    1    2    3    4    5    6    7    5    4    3    2    3    4    5    6    7    8  
  7    6    5    4    3    4    5    6    7    8    6    5    4    3    2    3    4    5    6    7    5    4    3    2    1    2    3    4    5    6    4    3    2    1    0    1    2    3    4    5    5    4    3    2    1    2    3    4    5    6    6    5    4    3    2    3    4    5    6    7  
  8    7    6    5    4    3    4    5    6    7    7    6    5    4    3    2    3    4    5    6    6    5    4    3    2    1    2    3    4    5    5    4    3    2    1    0    1    2    3    4    6    5    4    3    2    1    2    3    4    5    7    6    5    4    3    2    3    4    5    6  
  9    8    7    6    5    4    3    4    5    6    8    7    6    5    4    3    2    3    4    5    7    6    5    4    3    2    1    2    3    4    6    5    4    3    2    1    0    1    2    3    7    6    5    4    3    2    1    2    3    4    8    7    6    5    4    3    2    3    4    5  
 10    9    8    7    6    5    4    3    4    5    9    8    7    6    5    4    3    2    3    4    8    7    6    5    4    3    2    1    2    3    7    6    5    4    3    2    1    0    1    2    8    7    6    5    4    3    2    1    2    3    9    8    7    6    5    4    3    2    3    4  
 11   10    9    8    7    6    5    4    3    4   10    9    8    7    6    5    4    3    2    3    9    8    7    6    5    4    3    2    1    2    8    7    6    5    4    3    2    1    0    1    9    8    7    6    5    4    3    2    1    2   10    9    8    7    6    5    4    3    2    3  
 12   11   10    9    8    7    6    5    4    3   11   10    9    8    7    6    5    4    3    2   10    9    8    7    6    5    4    3    2    1    9    8    7    6    5    4    3    2    1    0   10    9    8    7    6    5    4    3    2    1   11   10    9    8    7    6    5    4    3    2  
  4    5    6    7    8    9   10   11   12   13    3    4    5    6    7    8    9   10   11   12    2    3    4    5    6    7    8    9   10   11    1    2    3    4    5    6    7    8    9   10    0    1    2    3    4    5    6    7    8    9    1    2    3    4    5    6    7    8    9   10  
  5    4    5    6    7    8    9   10   11   12    4    3    4    5    6    7    8    9   10   11    3    2    3    4    5    6    7    8    9   10    2    1    2    3    4    5    6    7    8    9    1    0    1    2    3    4    5    6    7    8    2    1    2    3    4    5    6    7    8    9  
  6    5    4    5    6    7    8    9   10   11    5    4    3    4    5    6    7    8    9   10    4    3    2    3    4    5    6    7    8    9    3    2    1    2    3    4    5    6    7    8    2    1    0    1    2    3    4    5    6    7    3    2    1    2    3    4    5    6    7    8  
  7    6    5    4    5    6    7    8    9   10    6    5    4    3    4    5    6    7    8    9    5    4    3    2    3    4    5    6    7    8    4    3    2    1    2    3    4    5    6    7    3    2    1    0    1    2    3    4    5    6    4    3    2    1    2    3    4    5    6    7  
  8    7    6    5    4    5    6    7    8    9    7    6    5    4    3    4    5    6    7    8    6    5    4    3    2    3    4    5    6    7    5    4    3    2    1    2    3    4    5    6    4    3    2    1    0    1    2    3    4    5    5    4    3    2    1    2    3    4    5    6  
  9    8    7    6    5    4    5    6    7    8    8    7    6    5    4    3    4    5    6    7    7    6    5    4    3    2    3    4    5    6    6    5    4    3    2    1    2    3    4    5    5    4    3    2    1    0    1    2    3    4    6    5    4    3    2    1    2    3    4    5  
 10    9    8    7    6    5    4    5    6    7    9    8    7    6    5    4    3    4    5    6    8    7    6    5    4    3    2    3    4    5    7    6    5    4    3    2    1    2    3    4    6    5    4    3    2    1    0    1    2    3    7    6    5    4    3    2    1    2    3    4  
 11   10    9    8    7    6    5    4    5    6   10    9    8    7    6    5    4    3    4    5    9    8    7    6    5    4    3    2    3    4    8    7    6    5    4    3    2    1    2    3    7    6    5    4    3    2    1    0    1    2    8    7    6    5    4    3    2    1    2    3  
 12   11   10    9    8    7    6    5    4    5   11   10    9    8    7    6    5    4    3    4   10    9    8    7    6    5    4    3    2    3    9    8    7    6    5    4    3    2    1    2    8    7    6    5    4    3    2    1    0    1    9    8    7    6    5    4    3    2    1    2  
 13   12   11   10    9    8    7    6    5    4   12   11   10    9    8    7    6    5    4    3   11   10    9    8    7    6    5    4    3    2   10    9    8    7    6    5    4    3    2    1    9    8    7    6    5    4    3    2    1    0   10    9    8    7    6    5    4    3    2    1  
  5    6    7    8    9   10   11   12   13   14    4    5    6    7    8    9   10   11   12   13    3    4    5    6    7    8    9   10   11   12    2    3    4    5    6    7    8    9   10   11    1    2    3    4    5    6    7    8    9   10    0    1    2    3    4    5    6    7    8    9  
  6    5    6    7    8    9   10   11   12   13    5    4    5    6    7    8    9   10   11   12    4    3    4    5    6    7    8    9   10   11    3    2    3    4    5    6    7    8    9   10    2    1    2    3    4    5    6    7    8    9    1    0    1    2    3    4    5    6    7    8  
  7    6    5    6    7    8    9   10   11   12    6    5    4    5    6    7    8    9   10   11    5    4    3    4    5    6    7    8    9   10    4    3    2    3    4    5    6    7    8    9    3    2    1    2    3    4    5    6    7    8    2    1    0    1    2    3    4    5    6    7  
  8    7    6    5    6    7    8    9   10   11    7    6    5    4    5    6    7    8    9   10    6    5    4    3    4    5    6    7    8    9    5    4    3    2    3    4    5    6    7    8    4    3    2    1    2    3    4    5    6    7    3    2    1    0    1    2    3    4    5    6  
  9    8    7    6    5    6    7    8    9   10    8    7    6    5    4    5    6    7    8    9    7    6    5    4    3    4    5    6    7    8    6    5    4    3    2    3    4    5    6    7    5    4    3    2    1    2    3    4    5    6    4    3    2    1    0    1    2    3    4    5  
 10    9    8    7    6    5    6    7    8    9    9    8    7    6    5    4    5    6    7    8    8    7    6    5    4    3    4    5    6    7    7    6    5    4    3    2    3    4    5    6    6    5    4    3    2    1    2    3    4    5    5    4    3    2    1    0    1    2    3    4  
 11   10    9    8    7    6    5    6    7    8   10    9    8    7    6    5    4    5    6    7    9    8    7    6    5    4    3    4    5    6    8    7    6    5    4    3    2    3    4    5    7    6    5    4    3    2    1    2    3    4    6    5    4    3    2    1    0    1    2    3  
 12   11   10    9    8    7    6    5    6    7   11   10    9    8    7    6    5    4    5    6   10    9    8    7    6    5    4    3    4    5    9    8    7    6    5    4    3    2    3    4    8    7    6    5    4    3    2    1    2    3    7    6    5    4    3    2    1    0    1    2  
 13   12   11   10    9    8    7    6    5    6   12   11   10    9    8    7    6    5    4    5   11   10    9    8    7    6    5    4    3    4   10    9    8    7    6    5    4    3    2    3    9    8    7    6    5    4    3    2    1    2    8    7    6    5    4    3    2    1    0    1  
 14   13   12   11   10    9    8    7    6    5   13   12   11   10    9    8    7    6    5    4   12   11   10    9    8    7    6    5    4    3   11   10    9    8    7    6    5    4    3    2   10    9    8    7    6    5    4    3    2    1    9    8    7    6    5    4    3    2    1    0  

  0    0    0    0    0    0    0    0    0    0   74    0    0   41    0    0    0    1    0    0    0   31    0    0    0    0    0    0    0    0    0    0    0    0    0    0    0   71   98    0    0   79    0    0    0    0    0   36    0    0    0   55    3    0    0    0    0    0    0   16  
 17    0   77    0    0    0    0    0    0    0    0    0    0    0    0    0    0    0    0    0    0    0    0    0    0    0    8    0    0   12    0    0   32   70    0    0    0    0    0    0    0    0    0    0    0    0    0    0    0    0    0    0    0    0    0    0    0    0    0    0  
  0   10    0    0    0    0    0    0    0    0    0    0   23    0    0    0    0    0    0    0    0    0    0    0    0    0    2    0    0    0    0    0    0    0   81    0    0    0    0   52    0    0    0    0    0    0    1    0    0    0   91   17    0    0    0    0   92    0   31    0  
  0    0    0    0    0    0    0   40    0    0    0    0    0    0    0    0    0    0    0    0   35    0    0    0    0    0    0   25    0    0   25    0    0    0    0   74    0    0    0    0   78    0    0    0   13    0    0    0    0    0    0    0   59   35    4    0    0   61    0    0  
  0    0    0    0    0    0    0    0    0    0   25    0    0   63   61   79    0    2    0    0    0    0    0    0   13    0    0    0    0   65    0    0    0    0    0    0    0   67    0    8   90   53    0   11   64    0    0   15   35    0    0   64    0    0    0    0    0    0    0   83  
  0   86    0    0    0    0    0    0    0    0    0    0    0   68    0    0    0    0    0    0    0    0    0    0   58    0    0    0    0   92    0   75    0    0    0    0    6    0    0    0    0    0    0    0   54    3   78    0   61    0    0    0    0    0    0    0    0    0    0    0  
  0    0    0    0    0    0    0    0    0    0   46    0    0    0    0    0    0    0    0   71    0    0    0    0    0    0    0    0    0    0    0    0    0   39   14    0    4    0    0    0   19    0    0    0    0    0    0    0    0    0   30    0    0    0    0    0    0    0    0    0  
  0   97    0   55    0    0   77    0    0   29    0    0    0    0    0    0    0    0    0    0    0    0    0    0    0    0    0   17    0    0   77    0    0    0    0    0    0    0    0   58    0    0    0    0   73    0    0    0    0    0    0    0   85    0   59    0    0    1    0    0  
  0   49    0    0    0    0    0    0    0    0    0    5    0    0    0    0   70    0    0    0    0    0    0    0    0   17    0    0    0    0   29    0    0    0    0    0    0    0    0    0    0    0    0    0    0    0    0    0    1    0    0    0    0    0    0    0    0   29    0    0  
  0    0    0    0    0    0    0    0    0    0    0    0    3    0    0   83    0    0   10    0    0    0    0    0    0    0    0   54    0    0    0    0    0    0    0    0    0    0    0    0    0    0    0    0    0    0   86    0    0    0    0    0    0    0    0    2    0    0    1    0  
 68    0    0    0   94    0   32    0    0    0    0    0    0    0    0    0    0    7    0   34    0   51    0    0    0    0    0    0    0    0    0    0    0    0   30    0   83   10    0    0   15   16    0   10    0    0    0    0    0    0    0   59    0    0    0    0    0    0    0   58  
  0    0    0    0    0    0    0    0    0    0    0    0    0    0    0    0    0    0    0    0    0    0    6    0   57    0    0    0    2    0   86    0    0    0    0    0    0    0   73   21    0    0    0    0    0   52    0    0    0    8    0    0    0   82    0    0    0    0    0    0  
  0    0   82    0    0    0    0    0    0   60   45    0    0    0    0   49    0    0   90   62    0    0   25   68    0    0   83    0    0    0    0    0    0   18    0    0   80    0    0    0    0    0    0    0    0    0   48    0    0    0   65    0    0    0    0    0   51    0   87    0  
  4    0    0    0   39   85    0    0    0    0    0    6    0    0    0    0    0   12    0    0    0    0    0    0    0    0    0    0    0   88    0    0    0    0    0    0    0   70    0    0    1   43    0   57    0   42    0    2   81    0    0   42    0    0    0    0    0    0    0   34  
 87    0    0    0   10    0    0    0    0    0    0    0    1    0    0    0    0    0    0    0    0    0    0    0   34    0    0    0  100   26    0    0   41    0   11    0    0    0   33    0    0    0    0    1    4    0    0    0    1    0    0    6    8   23    0    0    0    0    0    0  
  0    0    0    0    0    0    0    0    0   12    0    0   83    0    0    0    0    0   25    0    0    0    0    0    0    0    0    0    0    0    0    0   84   39    0    0    0    0    0    0    0    0    0    0    0    0   86    0    0    0    0    0    0    0    0   47    0    0   46    0  
  0    0    0    0    0    0    0    3    6    0    0   10    0    0    0    0    0    0    0    0    0    0    0    0   11    4    0    0    0    0    0    0    0    0    0    0    0    0    0   46    0    0    0    0    0    0    0    0    0   19    0    0    0    0    0    0    0    0    3    0  
 77    0    0    0   35    0    0    0    0    0   15    0    0    6    0    0    0    0    0    0    0    0    0    0    0    0    0    0    0    8    0    0    0    0    0    0    0   51    0    0    0   83    0    0    0    0    0   21    0    0    0   24    0    0    0    0    0    0    0    7  
  0    0    0    0    0    0    0    0    0  100    0   24   11    0    0   50    0    0    0    0    0    0   63    0    0    0    8    0   96    0  100    0    0    0    0    0    0    0    0    0    0    0    0    0    0    0   56    0    0    0   56    0    0    0    0   15   92    0   43    0  
  0    0    0    0    0    0   97    0   73    0    5    0    0   20    0    0    0    0    0    0    0   26    0    0    0    0    0    0    0    0    0    0    0   76   14    0    0   35    0    0   75    0    0    0    0    0    0    0    0    0    0    0    0    0    0    0    0    5    0   39  
  0    0    0    0    0    0    0    0    0    0    0    0    0    0    0    0    0    0    0    0    0    0    0    0    0    0    0    0    0    0    0    0    0    0    0    0   31    0    0    0    0    0   46    0    0    0    0    0    0    0    0    0    0    0    0    0    0    0    0    0  
  1    0    0    0    0    0    0    0    0    0   90    0    0    0    0   37    0    0    0   76   59    0    0    0    0    0    0    0    0    0    0    0    0    0   44    0    0   73    0    0   22    0    0    0    0    0    0    0    0    0    0   77    0    0    0    0    0   48    0    1  
  0    0    0    0    0    0    0   43    0    0    0   65   30   72    0    0    0    0   63    0    0    0    0   10    0    0   89    0   75    0   98    0    0    0    0    0    0    0   10    0    0    0    0    0    0    0    0    0    0    0   42    0    0    0    0    0   99    0    0    0  
  0    0    0    0    0    0    0    0    0    0    0    0   19    0    0    0    0    0    0    0    0    0   54    0    0    0   53    0    2    0    0    0   48    0    0    0    0    0   25    0    0    0    0    0    0    0    0    0    0    0   17    0    0    0    0    0    7    0    0    0  
  0    0    0    0   32    0    0    0   40    0    0   47    0    0   75    0    0    0    0    0    0    0    0    0    0    0    0    0   85   53    0    0    0    0    0    0    0    0   74   27    0    0    0   20    2    0    0    0    0    0    0    0    0   65    0    0    0    0    0    0  
  0    0    0    0    0    0    0    0    6    0    0    0    0    0    0    0   36   49    0    0    0    0    0    0    0    0    0    0    0    0   82    0    0    0    0   56    0    0    0    0    0    0    0    0    0    0    0    0    0    0    0    0   98    0    0    0    0   51    0    0  
  0   46   86    0    0    0    0    0    0    0    0    0   77    0    0    0    0    0   43    0    0    0   12   35    0    0    0    0    0    0    0    0    0    0    0    0   84    0    0    0    0    0    0    0    0    0   96    0    0    0   39    0    0    0    0    0   22    0    0    0  
  0    0   97   16   89   24    0   74    0    0    0    0    0    0    0    0    0    0    0    0    0    0    0    0    0    0    0    0    0    0   59    0    0    0   79   42    0   94    0    0    0    0    0    0    0    0    0    0    0    0    0    0   44    0   93   83    0   32    0    0  
  0    0    0    0    0    0    0    0    0    0    0   85    0    0    5    0    0    0    0    0    0    0    1   57   55    0    0    0    0    0    0    0    0    0    0    0    0    0   30    0    0    0    0   20   35    0    0    0    0    0    0    0    0    4   30    0    0    0    0    0  
  0    0   77    0   16    5    0    0    0    0    0    0    0   26   76    0    0   68    0    0    0    0    0    0   85    0    0    0    0    0    0   78    0    0    0    0    0    0    0   19    0    0    0   33   82   15    0    0   90    0    0   35    0   85    0    0    0    0    0    0  
  0    0   22   43    0    0    0   35    5    0    0    0    0    0    0    0    0    0    0    0    0    7    0    0    0  100    0   30    0    0    0    0    0    0    0   33    0    0    0    0    0    0   10    0    0    0    0    0   85    0    0    0   54    0   51    0    0   67    0    0  
  0    0    0    0    0   48    0    0    0    0    0    0    0    0    0    0    0    8    0    0    0    0    0    0    0    0    0    0    0    4    0    0    0    0    0    0   47    0    0    5    0    0    0    0   94   57    0    0   30    0    0    0   32   92    0    0    0    0    0    0  
  0   62    0    0    0    0    0    0    0    0    0   69    0    0    0    0    0    0    0    0    0    0    0   31    0    0    0    0    0    0    0    0    0   57    0    0    0    0   58    0    0    0    0   99    0    0    0    0    0    0    0    0    0    0    0    0    0    0    0    0  
  0   18    0    0    0    0    6    0    0    0    0    0    0    0    0    0    0    0    0    1    0   57    0    0    0    0    0    0    0    0    0    0   44    0   66    0    0    0    0    0    0    0    0    0    0    0    0    0    0    0   67    0    0    0    0    0    0    0    5    0  
  0    0    0    0    0    0   27    0    0    0   78    0    0    0    0    0    0    0    0    2    0   32    0    0    0    0    0    0    0    0    0    0    0    4    0    0    0   46    0    0   19    0   29    0    0    0    0    0    0    0    3    0    0    0    0    0    0    0    0   56  
  0    0    0    0    0    0    0    0    0    0    0    0    0    0    0    0    0    0    0    0    0    0    0    0    0    0    0   38    0    0    1    0    0    0    0    0    0    0    0    0    0    0    0    0    0    0    0    0    0   18    0    0    0    0   32   57    0    0    0    0  
 48    0    0    0    0   14    0    0    0    0    0    0    0    0    0    0    0    0    0    0    2    0    0    0    0    0    0    0    0   54    0   42    0    0    0    0    0    0    0    0    0    0   10    0    0   22    0    0    0    0    0    0    0    2    0    0    0    0    0    0  
 35    0    0    0   61    1    0    0    0    0   89    0    0   56    0    0    0   12    0   12    0    7    0    0    0    0    0    0    0    0    0   61    0    0   53   17    0    0    0    0   53   80    0    0   82   17    0    6    0    0    0   23    0    0    0    0    0    0    0   95  
  0    0    0    0    0    0    0    0    0    0    0   95    0   75   75    0    0    0    0    0    0    0   83   23   22    0    0    0   48    0    0    0    0    0    0    0    0    0    0    0    0    0    0    0    0    0    0    0    0   53    0    0    0   90    0    0    0    0    0    0  
  0    0    0    0    0    0    0    0    0    0    0   91    0    0    0    0   87    0    0    0    0   68    0   94   95    0    0    0    0    2    0   86    0    0    0    0    0    0    0    0    0    0    0    0   94    0    0    0    0   20    0    0    0   74    0    0    0    0    0    0  
 83   97    0    0   39    0   32    0    0    0   58    0    0    0    0    0    0    0    0   49    0   22    0    0    0    0    0    0    0    0    0    0    0    0   78    0   22   28    0    0    0    0   17    0    0    0    0    0    0    0    0   77    0    0    0    0    0    0    0   95  
 18    0   76    0   93    0    0    0    0    0   74    0    0   44    0    0    0   22    0    0    0    0    0    0    0    0    0    0    0    0    0    0    0    0    0    0    0   72    0    0    0    0    0    0    0    0    0   11    0    0    0   76    0    0    0    0    0    0    0   42  
 80    0    0    0    0    0    0    0    0    0    0    0    0    0    0    0    0    0    0   29   53   29    0    0    0   80    0    0    0   55    0    0   11    0    0    0   77    0    0    0    0    0    0    0    0    0    0    0    0    0    0    0    0    0    0    0    0    0    0    0  
  0    0    0    0   10    0    0    0    0    0   88    0    0   77   61    0    0    0    0    0    0    0    0    0   86    0    0    0    3   14    0    0    0    0    0    0    0    0    0    0    0    0    0    0   12    0    0    0    0    0   95   15    0   72    0    0    0    0    0   81  
  0    0    0    0   67   39    0    0    0    0    0    0    0    0   40    0    0    0    0    0    0    0    0    0   39    0    0    0    0   63    0    6    0    0    0    0    0    0    0   60    0    0    0   18    0   31    0    0   79    0    0    0    0   45    0    0    0    0    7    0  
  0    0    0    0    0    7    0    0    0    0    0    0    0    9    1    0    0    0    0    0    0    0    0    0    0    0    0   42    0   52    0   41    0    0    0    0   82    0    0   50   51    0    0    0    2    0    0    0    1    0    0    0    0   14    0    0    0    0    0    0  
  0    0    0    0    0    0    0    0    0   13    0    0   50    0    0   30    0   46   82    0    0    0    0    0    0    0   48    0    0    0    0    0    0    0    0    0    0    0    0    0    0    0    0    0    1    0    0    0    0    0   42    0    0    0    0    0   13    0   70    0  
 72    0    0    0   20    0    0    0    0    0    0    0    0   77    0    0    0   16    0    0    0    0   42    0    0    0    0    0    0    0    0   31    0   59    0    0    0   72    0    0    0   30    0    0    0    0    0    0   52    0    0   17    0    0    0    0    0    0    0   49  
  0    0    0    0   58   39    0    0    0    0    0    0    0    9    0    0    0    0   38    0    0    0    5    0    0    0    0    0    0   70    0  100    0    0    0    0    0    0    0    0    0    0    0    0   28   27    0   34    0    0    0   49    0    0    0    0    0    0    0    0  
  0    0    0    0    0    0    0    0    0    0    0   72    0    0    0    0   16    0    0    0    0    0    0    0    0    0    0    0    0    0    0    0    0    0   29   11    0    0   30   14    0    0    0    0    0    0    0    0    0    0    0    0    0   51    0    0    0    0    0    0  
  0    0   68    0    0    0    0    0    0    0    0    0   44    0    0    0    0    0   89    0    0    0   30   14    0    0   50    0    0    0    0    0    0   65    1    0    0    0    0    0    0    0    0    0    0    0   66    0    0    0    0    0   53    0    0    0   84   81    0    0  
 66    0    0    0   47    0    0    0    0    0   60    0    0   53   76    0    0   61    0    0    0    0    0    0    0    0    0    0    0   72    0    0    0    0    0    0    0   16    0    0   37   44    0   91    0   10    0   75   95    0    0    0   90    0    0    0   80    0   38   39  
  0    0    0    7    0    0    0   12    0    0    0    0    0    0    0   17    0    0    0    0    0    0    0    0    0   43    0   93   68   24   18    0    0    0    0    0    0    0    0    0    0    0    0    9    0    0    0    0    0    0    0    0    0    0   21   62    0   48    0    0  
  0    0    0    0    0    0    0    0    0    0    0   61    0    0   24    0    0    0    0    0    0    0    0    0   65    0    0    0   38   50    0   16    0    0    0    0    0    0   24   93    0    0    0    4   69    0   22    0    0   10    0    0    0    0    0    0    0    0    0    0  
  0    0    0   35    0    0    0   36    0    0    0    0    0    0    0    0    0    0    0    0    0    0    0    0    0   50    0   26    0    0   16    0    0    0    0   56    0    0    0    0   21    0    0    0    0    0    0    0    0    0    0    0   11    0    0   15    0    0    0    0  
  0    0    0    0   30   69    0    0    0   74    0    0    0    0   23   14    0    0   59    0    0    0    0    0    0    0    0   56    0    0    0    0    0    0    0   27   46    0    0    0    0    0    0    0    0    0    0    0    0    0    0    0   82    0   77    0    0    0   80    0  
  0    0    7    0    0    0    0    0    0    0    0    0   69    0    0    0    0    0   24    0    0    0   49   49    0    0   20    0    0    0    0    0    0    0    0    0    0    0    0    0    0    0    0    0    0    0   12    0    0    0   17    0    0    0    0   30    0    0    0    0  
  0    0    0   63    0    0    0   29   32    0    0    0   28    0    0    0    0    0    0    0    0    0    0    0    0   64    0   99    0    0   61    0    0    0    0    0    0    0    0    0    0    0   50    0    0    0    0    0    0    0    0    0    1    0    0    0    0    0    0    0  
  0    0    0    0    0    0    0    0    0   53    0    0   22    0   53   21    0    0   41    0    0    0    0    0    0    0    0    0    0    0    0    0    0    0    0    0    0    0    0    0    0    0    0    0    0    0   92    0   64    0    0    0    0    0    0   25    0    0    0    0  
 13    0    0    0   93    0    0    0    0    0   28    0    0   49    0    0    0   92    0   30    0   37    0    0    0   91    0    0   64    0    7    0    0    0   22    0    0   24    0    0   48   50    0    7    0    0    0   74    0    0    0   71    0    0    0    0    0    0    0    0  
